problem_generation/data/GISP/train/er_n=60_m=1070_p=0.60_SET2_setparam=100.00_alpha=0.50_231.lp
maximize
OBJ:100x0 + 100x1 + 100x2 + 100x3 + 100x4 + 100x5 + 100x6 + 100x7 + 100x8 + 100x9 + 100x10 + 100x11 + 100x12 + 100x13 + 100x14 + 100x15 + 100x16 + 100x17 + 100x18 + 100x19 + 100x20 + 100x21 + 100x22 + 100x23 + 100x24 + 100x25 + 100x26 + 100x27 + 100x28 + 100x29 + 100x30 + 100x31 + 100x32 + 100x33 + 100x34 + 100x35 + 100x36 + 100x37 + 100x38 + 100x39 + 100x40 + 100x41 + 100x42 + 100x43 + 100x44 + 100x45 + 100x46 + 100x47 + 100x48 + 100x49 + 100x50 + 100x51 + 100x52 + 100x53 + 100x54 + 100x55 + 100x56 + 100x57 + 100x58 + 100x59 - y55_57 - y15_30 - y28_58 - y7_35 - y29_41 - y6_48 - y11_14 - y40_50 - y0_23 - y40_59 - y21_55 - y10_27 - y25_34 - y33_47 - y44_47 - y25_43 - y10_54 - y3_15 - y3_24 - y22_37 - y3_42 - y15_16 - y36_48 - y28_53 - y9_58 - y6_34 - y29_36 - y21_32 - y48_58 - y21_59 - y25_29 - y44_51 - y25_47 - y3_10 - y10_58 - y22_23 - y43_55 - y22_32 - y14_28 - y14_37 - y16_56 - y36_43 - y17_39 - y7_16 - y47_52 - y9_44 - y17_57 - y28_57 - y21_27 - y29_40 - y21_36 - y6_56 - y10_17 - y10_26 - y2_31 - y2_40 - y32_41 - y51_54 - y2_49 - y32_50 - y13_46 - y3_23 - y43_59 - y24_55 - y35_55 - y14_32 - y36_38 - y17_34 - y36_47 - y17_52 - y5_59 - y6_33 - y29_35 - y29_44 - y6_51 - y39_48 - y31_53 - y10_30 - y10_39 - y23_58 - y24_50 - y35_59 - y17_29 - y36_42 - y5_45 - y28_56 - y9_52 - y6_46 - y20_39 - y10_25 - y2_30 - y13_27 - y24_27 - y4_58 - y32_40 - y24_36 - y43_49 - y13_45 - y35_45 - y16_41 - y1_52 - y13_54 - y5_22 - y9_20 - y17_33 - y28_33 - y28_42 - y5_49 - y6_23 - y42_44 - y6_32 - y42_53 - y0_56 - y20_34 - y10_11 - y2_7 - y39_56 - y12_39 - y23_39 - y31_52 - y13_22 - y13_31 - y43_53 - y1_47 - y24_49 - y35_49 - y1_56 - y16_54 - y49_51 - y9_33 - y6_9 - y6_18 - y27_50 - y8_46 - y19_46 - y27_59 - y42_48 - y19_55 - y11_51 - y20_29 - y12_25 - y31_38 - y2_11 - y4_30 - y23_52 - y1_15 - y13_26 - y13_44 - y9_10 - y38_46 - y5_21 - y15_53 - y5_39 - y6_13 - y27_45 - y0_37 - y12_29 - y31_42 - y12_38 - y23_38 - y1_10 - y4_43 - y13_21 - y53_57 - y1_37 - y37_58 - y1_46 - y5_7 - y9_14 - y15_48 - y26_48 - y38_50 - y38_59 - y49_59 - y7_53 - y19_27 - y27_40 - y50_51 - y0_32 - y11_32 - y27_58 - y30_54 - y42_56 - y11_50 - y39_41 - y12_24 - y23_24 - y31_37 - y12_33 - y4_47 - y37_44 - y34_57 - y46_49 - y26_43 - y38_45 - y57_58 - y18_39 - y38_54 - y49_54 - y18_48 - y8_13 - y19_22 - y27_35 - y0_18 - y11_18 - y27_44 - y8_40 - y27_53 - y11_36 - y30_49 - y0_45 - y11_54 - y41_55 - y52_55 - y20_32 - y31_32 - y23_28 - y1_9 - y53_56 - y45_52 - y22_59 - y26_29 - y7_25 - y38_40 - y7_34 - y38_49 - y18_43 - y15_56 - y18_52 - y8_17 - y8_26 - y19_26 - y41_50 - y12_23 - y33_55 - y25_51 - y37_43 - y3_59 - y14_59 - y19_21 - y8_30 - y11_26 - y4_14 - y44_50 - y2_44 - y10_57 - y33_59 - y44_59 - y34_42 - y22_49 - y34_51 - y3_45 - y14_45 - y14_54 - y7_33 - y29_39 - y48_52 - y11_12 - y21_53 - y11_30 - y10_34 - y33_45 - y44_45 - y52_58 - y44_54 - y3_22 - y34_37 - y22_44 - y15_23 - y47_55 - y6_41 - y40_43 - y6_50 - y29_52 - y6_59 - y21_57 - y10_20 - y41_44 - y2_25 - y33_40 - y2_43 - y14_26 - y14_44 - y36_50 - y17_46 - y28_46 - y7_23 - y18_23 - y21_25 - y21_34 - y6_45 - y29_56 - y40_56 - y21_52 - y2_20 - y51_52 - y3_12 - y32_48 - y14_21 - y43_57 - y17_32 - y28_32 - y47_54 - y17_50 - y9_46 - y5_57 - y29_42 - y40_42 - y29_51 - y2_6 - y2_24 - y25_35 - y32_43 - y13_39 - y35_39 - y32_52 - y24_48 - y3_25 - y16_44 - y17_18 - y9_23 - y6_8 - y47_58 - y9_41 - y17_54 - y21_24 - y2_10 - y31_55 - y54_57 - y13_25 - y2_37 - y4_56 - y32_38 - y24_34 - y32_47 - y13_43 - y24_43 - y35_43 - y9_36 - y9_45 - y9_54 - y6_30 - y42_51 - y19_58 - y20_50 - y31_50 - y23_55 - y1_27 - y24_29 - y24_38 - y35_38 - y13_47 - y13_56 - y17_26 - y49_58 - y17_35 - y6_7 - y5_51 - y6_16 - y27_57 - y8_53 - y19_53 - y42_55 - y20_27 - y39_49 - y23_32 - y20_45 - y31_45 - y23_41 - y20_54 - y4_46 - y12_59 - y4_55 - y43_46 - y1_40 - y24_42 - y35_42 - y1_49 - y24_51 - y17_21 - y9_17 - y17_30 - y5_37 - y8_39 - y30_39 - y42_50 - y42_59 - y20_22 - y11_53 - y20_31 - y23_27 - y4_23 - y12_36 - y23_36 - y4_32 - y12_45 - y23_45 - y53_55 - y1_26 - y13_28 - y4_59 - y1_44 - y38_39 - y15_55 - y26_55 - y7_51 - y18_51 - y19_43 - y11_39 - y42_54 - y0_48 - y20_26 - y0_57 - y20_35 - y12_31 - y31_44 - y4_36 - y12_49 - y1_12 - y34_46 - y45_46 - y1_21 - y16_19 - y34_55 - y37_51 - y5_9 - y26_41 - y38_43 - y5_18 - y9_16 - y15_50 - y38_52 - y15_59 - y26_59 - y7_55 - y8_20 - y27_33 - y19_29 - y27_42 - y0_25 - y19_38 - y11_34 - y30_47 - y42_49 - y8_56 - y20_21 - y30_56 - y11_52 - y41_53 - y20_30 - y12_26 - y4_31 - y4_40 - y22_48 - y45_50 - y1_25 - y22_57 - y56_59 - y37_55 - y18_50 - y27_28 - y7_59 - y8_24 - y11_20 - y19_33 - y27_46 - y11_29 - y0_38 - y19_51 - y0_47 - y12_21 - y44_53 - y4_26 - y1_2 - y22_52 - y34_54 - y45_54 - y15_22 - y26_31 - y38_42 - y18_36 - y48_55 - y27_32 - y19_28 - y0_24 - y0_42 - y10_46 - y33_48 - y25_44 - y4_21 - y10_55 - y33_57 - y22_38 - y34_40 - y22_47 - y34_49 - y15_17 - y7_22 - y18_22 - y26_35 - y7_31 - y26_44 - y7_40 - y18_40 - y8_14 - y40_46 - y11_19 - y30_32 - y4_7 - y10_41 - y33_43 - y41_56 - y25_48 - y3_29 - y14_29 - y37_40 - y3_47 - y14_56
 Subject to
C1: x0+x8 <=1 
C2: x0+x10 <=1 
C3: x0+x11 <=1 
C4: x0+x12 <=1 
C5: x0+x13 <=1 
C6: x0+x16 <=1 
C7: x0+x18-y0_18 <=1 
C8: x0+x19 <=1 
C9: x0+x22 <=1 
C10: x0+x23-y0_23 <=1 
C11: x0+x24-y0_24 <=1 
C12: x0+x25-y0_25 <=1 
C13: x0+x29 <=1 
C14: x0+x30 <=1 
C15: x0+x32-y0_32 <=1 
C16: x0+x34 <=1 
C17: x0+x37-y0_37 <=1 
C18: x0+x38-y0_38 <=1 
C19: x0+x39 <=1 
C20: x0+x40 <=1 
C21: x0+x42-y0_42 <=1 
C22: x0+x45-y0_45 <=1 
C23: x0+x47-y0_47 <=1 
C24: x0+x48-y0_48 <=1 
C25: x0+x49 <=1 
C26: x0+x52 <=1 
C27: x0+x55 <=1 
C28: x0+x56-y0_56 <=1 
C29: x0+x57-y0_57 <=1 
C30: x0+x58 <=1 
C31: x1+x2-y1_2 <=1 
C32: x1+x3 <=1 
C33: x1+x4 <=1 
C34: x1+x7 <=1 
C35: x1+x8 <=1 
C36: x1+x9-y1_9 <=1 
C37: x1+x10-y1_10 <=1 
C38: x1+x12-y1_12 <=1 
C39: x1+x15-y1_15 <=1 
C40: x1+x16 <=1 
C41: x1+x17 <=1 
C42: x1+x19 <=1 
C43: x1+x20 <=1 
C44: x1+x21-y1_21 <=1 
C45: x1+x23 <=1 
C46: x1+x25-y1_25 <=1 
C47: x1+x26-y1_26 <=1 
C48: x1+x27-y1_27 <=1 
C49: x1+x29 <=1 
C50: x1+x30 <=1 
C51: x1+x37-y1_37 <=1 
C52: x1+x38 <=1 
C53: x1+x39 <=1 
C54: x1+x40-y1_40 <=1 
C55: x1+x44-y1_44 <=1 
C56: x1+x46-y1_46 <=1 
C57: x1+x47-y1_47 <=1 
C58: x1+x48 <=1 
C59: x1+x49-y1_49 <=1 
C60: x1+x52-y1_52 <=1 
C61: x1+x56-y1_56 <=1 
C62: x1+x58 <=1 
C63: x2+x3 <=1 
C64: x2+x6-y2_6 <=1 
C65: x2+x7-y2_7 <=1 
C66: x2+x10-y2_10 <=1 
C67: x2+x11-y2_11 <=1 
C68: x2+x15 <=1 
C69: x2+x20-y2_20 <=1 
C70: x2+x22 <=1 
C71: x2+x23 <=1 
C72: x2+x24-y2_24 <=1 
C73: x2+x25-y2_25 <=1 
C74: x2+x26 <=1 
C75: x2+x27 <=1 
C76: x2+x30-y2_30 <=1 
C77: x2+x31-y2_31 <=1 
C78: x2+x34 <=1 
C79: x2+x35 <=1 
C80: x2+x37-y2_37 <=1 
C81: x2+x38 <=1 
C82: x2+x40-y2_40 <=1 
C83: x2+x43-y2_43 <=1 
C84: x2+x44-y2_44 <=1 
C85: x2+x46 <=1 
C86: x2+x47 <=1 
C87: x2+x49-y2_49 <=1 
C88: x2+x51 <=1 
C89: x2+x52 <=1 
C90: x2+x53 <=1 
C91: x2+x55 <=1 
C92: x2+x56 <=1 
C93: x3+x9 <=1 
C94: x3+x10-y3_10 <=1 
C95: x3+x12-y3_12 <=1 
C96: x3+x15-y3_15 <=1 
C97: x3+x16 <=1 
C98: x3+x17 <=1 
C99: x3+x18 <=1 
C100: x3+x19 <=1 
C101: x3+x20 <=1 
C102: x3+x21 <=1 
C103: x3+x22-y3_22 <=1 
C104: x3+x23-y3_23 <=1 
C105: x3+x24-y3_24 <=1 
C106: x3+x25-y3_25 <=1 
C107: x3+x26 <=1 
C108: x3+x27 <=1 
C109: x3+x29-y3_29 <=1 
C110: x3+x32 <=1 
C111: x3+x33 <=1 
C112: x3+x37 <=1 
C113: x3+x42-y3_42 <=1 
C114: x3+x44 <=1 
C115: x3+x45-y3_45 <=1 
C116: x3+x46 <=1 
C117: x3+x47-y3_47 <=1 
C118: x3+x49 <=1 
C119: x3+x52 <=1 
C120: x3+x53 <=1 
C121: x3+x55 <=1 
C122: x3+x56 <=1 
C123: x3+x57 <=1 
C124: x3+x59-y3_59 <=1 
C125: x4+x7-y4_7 <=1 
C126: x4+x8 <=1 
C127: x4+x9 <=1 
C128: x4+x11 <=1 
C129: x4+x14-y4_14 <=1 
C130: x4+x15 <=1 
C131: x4+x17 <=1 
C132: x4+x18 <=1 
C133: x4+x19 <=1 
C134: x4+x21-y4_21 <=1 
C135: x4+x22 <=1 
C136: x4+x23-y4_23 <=1 
C137: x4+x26-y4_26 <=1 
C138: x4+x30-y4_30 <=1 
C139: x4+x31-y4_31 <=1 
C140: x4+x32-y4_32 <=1 
C141: x4+x33 <=1 
C142: x4+x34 <=1 
C143: x4+x35 <=1 
C144: x4+x36-y4_36 <=1 
C145: x4+x37 <=1 
C146: x4+x38 <=1 
C147: x4+x39 <=1 
C148: x4+x40-y4_40 <=1 
C149: x4+x43-y4_43 <=1 
C150: x4+x45 <=1 
C151: x4+x46-y4_46 <=1 
C152: x4+x47-y4_47 <=1 
C153: x4+x49 <=1 
C154: x4+x50 <=1 
C155: x4+x53 <=1 
C156: x4+x54 <=1 
C157: x4+x55-y4_55 <=1 
C158: x4+x56-y4_56 <=1 
C159: x4+x57 <=1 
C160: x4+x58-y4_58 <=1 
C161: x4+x59-y4_59 <=1 
C162: x5+x6 <=1 
C163: x5+x7-y5_7 <=1 
C164: x5+x8 <=1 
C165: x5+x9-y5_9 <=1 
C166: x5+x11 <=1 
C167: x5+x18-y5_18 <=1 
C168: x5+x20 <=1 
C169: x5+x21-y5_21 <=1 
C170: x5+x22-y5_22 <=1 
C171: x5+x23 <=1 
C172: x5+x24 <=1 
C173: x5+x25 <=1 
C174: x5+x26 <=1 
C175: x5+x28 <=1 
C176: x5+x30 <=1 
C177: x5+x31 <=1 
C178: x5+x33 <=1 
C179: x5+x36 <=1 
C180: x5+x37-y5_37 <=1 
C181: x5+x38 <=1 
C182: x5+x39-y5_39 <=1 
C183: x5+x40 <=1 
C184: x5+x41 <=1 
C185: x5+x42 <=1 
C186: x5+x45-y5_45 <=1 
C187: x5+x47 <=1 
C188: x5+x49-y5_49 <=1 
C189: x5+x51-y5_51 <=1 
C190: x5+x52 <=1 
C191: x5+x56 <=1 
C192: x5+x57-y5_57 <=1 
C193: x5+x58 <=1 
C194: x5+x59-y5_59 <=1 
C195: x6+x7-y6_7 <=1 
C196: x6+x8-y6_8 <=1 
C197: x6+x9-y6_9 <=1 
C198: x6+x12 <=1 
C199: x6+x13-y6_13 <=1 
C200: x6+x14 <=1 
C201: x6+x15 <=1 
C202: x6+x16-y6_16 <=1 
C203: x6+x18-y6_18 <=1 
C204: x6+x19 <=1 
C205: x6+x20 <=1 
C206: x6+x22 <=1 
C207: x6+x23-y6_23 <=1 
C208: x6+x24 <=1 
C209: x6+x25 <=1 
C210: x6+x27 <=1 
C211: x6+x29 <=1 
C212: x6+x30-y6_30 <=1 
C213: x6+x31 <=1 
C214: x6+x32-y6_32 <=1 
C215: x6+x33-y6_33 <=1 
C216: x6+x34-y6_34 <=1 
C217: x6+x36 <=1 
C218: x6+x37 <=1 
C219: x6+x41-y6_41 <=1 
C220: x6+x43 <=1 
C221: x6+x44 <=1 
C222: x6+x45-y6_45 <=1 
C223: x6+x46-y6_46 <=1 
C224: x6+x47 <=1 
C225: x6+x48-y6_48 <=1 
C226: x6+x50-y6_50 <=1 
C227: x6+x51-y6_51 <=1 
C228: x6+x52 <=1 
C229: x6+x53 <=1 
C230: x6+x54 <=1 
C231: x6+x55 <=1 
C232: x6+x56-y6_56 <=1 
C233: x6+x59-y6_59 <=1 
C234: x7+x9 <=1 
C235: x7+x10 <=1 
C236: x7+x16-y7_16 <=1 
C237: x7+x20 <=1 
C238: x7+x21 <=1 
C239: x7+x22-y7_22 <=1 
C240: x7+x23-y7_23 <=1 
C241: x7+x24 <=1 
C242: x7+x25-y7_25 <=1 
C243: x7+x27 <=1 
C244: x7+x31-y7_31 <=1 
C245: x7+x32 <=1 
C246: x7+x33-y7_33 <=1 
C247: x7+x34-y7_34 <=1 
C248: x7+x35-y7_35 <=1 
C249: x7+x36 <=1 
C250: x7+x38 <=1 
C251: x7+x40-y7_40 <=1 
C252: x7+x41 <=1 
C253: x7+x46 <=1 
C254: x7+x50 <=1 
C255: x7+x51-y7_51 <=1 
C256: x7+x52 <=1 
C257: x7+x53-y7_53 <=1 
C258: x7+x55-y7_55 <=1 
C259: x7+x59-y7_59 <=1 
C260: x8+x13-y8_13 <=1 
C261: x8+x14-y8_14 <=1 
C262: x8+x17-y8_17 <=1 
C263: x8+x18 <=1 
C264: x8+x20-y8_20 <=1 
C265: x8+x21 <=1 
C266: x8+x22 <=1 
C267: x8+x23 <=1 
C268: x8+x24-y8_24 <=1 
C269: x8+x25 <=1 
C270: x8+x26-y8_26 <=1 
C271: x8+x30-y8_30 <=1 
C272: x8+x37 <=1 
C273: x8+x38 <=1 
C274: x8+x39-y8_39 <=1 
C275: x8+x40-y8_40 <=1 
C276: x8+x42 <=1 
C277: x8+x43 <=1 
C278: x8+x45 <=1 
C279: x8+x46-y8_46 <=1 
C280: x8+x47 <=1 
C281: x8+x53-y8_53 <=1 
C282: x8+x56-y8_56 <=1 
C283: x9+x10-y9_10 <=1 
C284: x9+x13 <=1 
C285: x9+x14-y9_14 <=1 
C286: x9+x16-y9_16 <=1 
C287: x9+x17-y9_17 <=1 
C288: x9+x20-y9_20 <=1 
C289: x9+x22 <=1 
C290: x9+x23-y9_23 <=1 
C291: x9+x27 <=1 
C292: x9+x28 <=1 
C293: x9+x29 <=1 
C294: x9+x30 <=1 
C295: x9+x31 <=1 
C296: x9+x32 <=1 
C297: x9+x33-y9_33 <=1 
C298: x9+x34 <=1 
C299: x9+x35 <=1 
C300: x9+x36-y9_36 <=1 
C301: x9+x41-y9_41 <=1 
C302: x9+x43 <=1 
C303: x9+x44-y9_44 <=1 
C304: x9+x45-y9_45 <=1 
C305: x9+x46-y9_46 <=1 
C306: x9+x48 <=1 
C307: x9+x52-y9_52 <=1 
C308: x9+x53 <=1 
C309: x9+x54-y9_54 <=1 
C310: x9+x58-y9_58 <=1 
C311: x9+x59 <=1 
C312: x10+x11-y10_11 <=1 
C313: x10+x12 <=1 
C314: x10+x14 <=1 
C315: x10+x17-y10_17 <=1 
C316: x10+x19 <=1 
C317: x10+x20-y10_20 <=1 
C318: x10+x21 <=1 
C319: x10+x25-y10_25 <=1 
C320: x10+x26-y10_26 <=1 
C321: x10+x27-y10_27 <=1 
C322: x10+x28 <=1 
C323: x10+x29 <=1 
C324: x10+x30-y10_30 <=1 
C325: x10+x31 <=1 
C326: x10+x34-y10_34 <=1 
C327: x10+x37 <=1 
C328: x10+x39-y10_39 <=1 
C329: x10+x40 <=1 
C330: x10+x41-y10_41 <=1 
C331: x10+x46-y10_46 <=1 
C332: x10+x48 <=1 
C333: x10+x49 <=1 
C334: x10+x52 <=1 
C335: x10+x54-y10_54 <=1 
C336: x10+x55-y10_55 <=1 
C337: x10+x57-y10_57 <=1 
C338: x10+x58-y10_58 <=1 
C339: x11+x12-y11_12 <=1 
C340: x11+x13 <=1 
C341: x11+x14-y11_14 <=1 
C342: x11+x15 <=1 
C343: x11+x17 <=1 
C344: x11+x18-y11_18 <=1 
C345: x11+x19-y11_19 <=1 
C346: x11+x20-y11_20 <=1 
C347: x11+x24 <=1 
C348: x11+x26-y11_26 <=1 
C349: x11+x27 <=1 
C350: x11+x29-y11_29 <=1 
C351: x11+x30-y11_30 <=1 
C352: x11+x32-y11_32 <=1 
C353: x11+x33 <=1 
C354: x11+x34-y11_34 <=1 
C355: x11+x36-y11_36 <=1 
C356: x11+x37 <=1 
C357: x11+x39-y11_39 <=1 
C358: x11+x41 <=1 
C359: x11+x43 <=1 
C360: x11+x44 <=1 
C361: x11+x45 <=1 
C362: x11+x50-y11_50 <=1 
C363: x11+x51-y11_51 <=1 
C364: x11+x52-y11_52 <=1 
C365: x11+x53-y11_53 <=1 
C366: x11+x54-y11_54 <=1 
C367: x11+x55 <=1 
C368: x11+x57 <=1 
C369: x11+x58 <=1 
C370: x12+x13 <=1 
C371: x12+x16 <=1 
C372: x12+x17 <=1 
C373: x12+x21-y12_21 <=1 
C374: x12+x22 <=1 
C375: x12+x23-y12_23 <=1 
C376: x12+x24-y12_24 <=1 
C377: x12+x25-y12_25 <=1 
C378: x12+x26-y12_26 <=1 
C379: x12+x27 <=1 
C380: x12+x29-y12_29 <=1 
C381: x12+x30 <=1 
C382: x12+x31-y12_31 <=1 
C383: x12+x32 <=1 
C384: x12+x33-y12_33 <=1 
C385: x12+x36-y12_36 <=1 
C386: x12+x38-y12_38 <=1 
C387: x12+x39-y12_39 <=1 
C388: x12+x40 <=1 
C389: x12+x41 <=1 
C390: x12+x43 <=1 
C391: x12+x45-y12_45 <=1 
C392: x12+x48 <=1 
C393: x12+x49-y12_49 <=1 
C394: x12+x51 <=1 
C395: x12+x52 <=1 
C396: x12+x53 <=1 
C397: x12+x54 <=1 
C398: x12+x56 <=1 
C399: x12+x57 <=1 
C400: x12+x59-y12_59 <=1 
C401: x13+x15 <=1 
C402: x13+x17 <=1 
C403: x13+x19 <=1 
C404: x13+x21-y13_21 <=1 
C405: x13+x22-y13_22 <=1 
C406: x13+x25-y13_25 <=1 
C407: x13+x26-y13_26 <=1 
C408: x13+x27-y13_27 <=1 
C409: x13+x28-y13_28 <=1 
C410: x13+x30 <=1 
C411: x13+x31-y13_31 <=1 
C412: x13+x35 <=1 
C413: x13+x36 <=1 
C414: x13+x38 <=1 
C415: x13+x39-y13_39 <=1 
C416: x13+x43-y13_43 <=1 
C417: x13+x44-y13_44 <=1 
C418: x13+x45-y13_45 <=1 
C419: x13+x46-y13_46 <=1 
C420: x13+x47-y13_47 <=1 
C421: x13+x48 <=1 
C422: x13+x51 <=1 
C423: x13+x53 <=1 
C424: x13+x54-y13_54 <=1 
C425: x13+x56-y13_56 <=1 
C426: x13+x59 <=1 
C427: x14+x15 <=1 
C428: x14+x16 <=1 
C429: x14+x19 <=1 
C430: x14+x21-y14_21 <=1 
C431: x14+x22 <=1 
C432: x14+x24 <=1 
C433: x14+x25 <=1 
C434: x14+x26-y14_26 <=1 
C435: x14+x27 <=1 
C436: x14+x28-y14_28 <=1 
C437: x14+x29-y14_29 <=1 
C438: x14+x31 <=1 
C439: x14+x32-y14_32 <=1 
C440: x14+x33 <=1 
C441: x14+x34 <=1 
C442: x14+x35 <=1 
C443: x14+x37-y14_37 <=1 
C444: x14+x38 <=1 
C445: x14+x40 <=1 
C446: x14+x41 <=1 
C447: x14+x42 <=1 
C448: x14+x44-y14_44 <=1 
C449: x14+x45-y14_45 <=1 
C450: x14+x46 <=1 
C451: x14+x50 <=1 
C452: x14+x54-y14_54 <=1 
C453: x14+x56-y14_56 <=1 
C454: x14+x57 <=1 
C455: x14+x59-y14_59 <=1 
C456: x15+x16-y15_16 <=1 
C457: x15+x17-y15_17 <=1 
C458: x15+x22-y15_22 <=1 
C459: x15+x23-y15_23 <=1 
C460: x15+x24 <=1 
C461: x15+x26 <=1 
C462: x15+x27 <=1 
C463: x15+x28 <=1 
C464: x15+x29 <=1 
C465: x15+x30-y15_30 <=1 
C466: x15+x34 <=1 
C467: x15+x36 <=1 
C468: x15+x37 <=1 
C469: x15+x39 <=1 
C470: x15+x42 <=1 
C471: x15+x45 <=1 
C472: x15+x48-y15_48 <=1 
C473: x15+x50-y15_50 <=1 
C474: x15+x51 <=1 
C475: x15+x53-y15_53 <=1 
C476: x15+x54 <=1 
C477: x15+x55-y15_55 <=1 
C478: x15+x56-y15_56 <=1 
C479: x15+x57 <=1 
C480: x15+x59-y15_59 <=1 
C481: x16+x17 <=1 
C482: x16+x19-y16_19 <=1 
C483: x16+x20 <=1 
C484: x16+x21 <=1 
C485: x16+x22 <=1 
C486: x16+x25 <=1 
C487: x16+x27 <=1 
C488: x16+x28 <=1 
C489: x16+x29 <=1 
C490: x16+x34 <=1 
C491: x16+x35 <=1 
C492: x16+x36 <=1 
C493: x16+x37 <=1 
C494: x16+x38 <=1 
C495: x16+x41-y16_41 <=1 
C496: x16+x42 <=1 
C497: x16+x43 <=1 
C498: x16+x44-y16_44 <=1 
C499: x16+x45 <=1 
C500: x16+x51 <=1 
C501: x16+x54-y16_54 <=1 
C502: x16+x56-y16_56 <=1 
C503: x16+x57 <=1 
C504: x16+x59 <=1 
C505: x17+x18-y17_18 <=1 
C506: x17+x20 <=1 
C507: x17+x21-y17_21 <=1 
C508: x17+x22 <=1 
C509: x17+x23 <=1 
C510: x17+x24 <=1 
C511: x17+x25 <=1 
C512: x17+x26-y17_26 <=1 
C513: x17+x28 <=1 
C514: x17+x29-y17_29 <=1 
C515: x17+x30-y17_30 <=1 
C516: x17+x32-y17_32 <=1 
C517: x17+x33-y17_33 <=1 
C518: x17+x34-y17_34 <=1 
C519: x17+x35-y17_35 <=1 
C520: x17+x38 <=1 
C521: x17+x39-y17_39 <=1 
C522: x17+x41 <=1 
C523: x17+x42 <=1 
C524: x17+x43 <=1 
C525: x17+x44 <=1 
C526: x17+x46-y17_46 <=1 
C527: x17+x47 <=1 
C528: x17+x50-y17_50 <=1 
C529: x17+x51 <=1 
C530: x17+x52-y17_52 <=1 
C531: x17+x54-y17_54 <=1 
C532: x17+x55 <=1 
C533: x17+x57-y17_57 <=1 
C534: x17+x58 <=1 
C535: x17+x59 <=1 
C536: x18+x21 <=1 
C537: x18+x22-y18_22 <=1 
C538: x18+x23-y18_23 <=1 
C539: x18+x29 <=1 
C540: x18+x31 <=1 
C541: x18+x32 <=1 
C542: x18+x35 <=1 
C543: x18+x36-y18_36 <=1 
C544: x18+x37 <=1 
C545: x18+x39-y18_39 <=1 
C546: x18+x40-y18_40 <=1 
C547: x18+x42 <=1 
C548: x18+x43-y18_43 <=1 
C549: x18+x45 <=1 
C550: x18+x46 <=1 
C551: x18+x48-y18_48 <=1 
C552: x18+x49 <=1 
C553: x18+x50-y18_50 <=1 
C554: x18+x51-y18_51 <=1 
C555: x18+x52-y18_52 <=1 
C556: x18+x53 <=1 
C557: x18+x54 <=1 
C558: x18+x55 <=1 
C559: x18+x57 <=1 
C560: x19+x21-y19_21 <=1 
C561: x19+x22-y19_22 <=1 
C562: x19+x26-y19_26 <=1 
C563: x19+x27-y19_27 <=1 
C564: x19+x28-y19_28 <=1 
C565: x19+x29-y19_29 <=1 
C566: x19+x30 <=1 
C567: x19+x32 <=1 
C568: x19+x33-y19_33 <=1 
C569: x19+x35 <=1 
C570: x19+x37 <=1 
C571: x19+x38-y19_38 <=1 
C572: x19+x39 <=1 
C573: x19+x43-y19_43 <=1 
C574: x19+x45 <=1 
C575: x19+x46-y19_46 <=1 
C576: x19+x47 <=1 
C577: x19+x48 <=1 
C578: x19+x49 <=1 
C579: x19+x50 <=1 
C580: x19+x51-y19_51 <=1 
C581: x19+x52 <=1 
C582: x19+x53-y19_53 <=1 
C583: x19+x55-y19_55 <=1 
C584: x19+x56 <=1 
C585: x19+x57 <=1 
C586: x19+x58-y19_58 <=1 
C587: x19+x59 <=1 
C588: x20+x21-y20_21 <=1 
C589: x20+x22-y20_22 <=1 
C590: x20+x24 <=1 
C591: x20+x26-y20_26 <=1 
C592: x20+x27-y20_27 <=1 
C593: x20+x28 <=1 
C594: x20+x29-y20_29 <=1 
C595: x20+x30-y20_30 <=1 
C596: x20+x31-y20_31 <=1 
C597: x20+x32-y20_32 <=1 
C598: x20+x33 <=1 
C599: x20+x34-y20_34 <=1 
C600: x20+x35-y20_35 <=1 
C601: x20+x37 <=1 
C602: x20+x39-y20_39 <=1 
C603: x20+x40 <=1 
C604: x20+x42 <=1 
C605: x20+x43 <=1 
C606: x20+x45-y20_45 <=1 
C607: x20+x46 <=1 
C608: x20+x50-y20_50 <=1 
C609: x20+x54-y20_54 <=1 
C610: x20+x57 <=1 
C611: x20+x59 <=1 
C612: x21+x22 <=1 
C613: x21+x23 <=1 
C614: x21+x24-y21_24 <=1 
C615: x21+x25-y21_25 <=1 
C616: x21+x27-y21_27 <=1 
C617: x21+x28 <=1 
C618: x21+x29 <=1 
C619: x21+x32-y21_32 <=1 
C620: x21+x33 <=1 
C621: x21+x34-y21_34 <=1 
C622: x21+x35 <=1 
C623: x21+x36-y21_36 <=1 
C624: x21+x37 <=1 
C625: x21+x38 <=1 
C626: x21+x42 <=1 
C627: x21+x43 <=1 
C628: x21+x44 <=1 
C629: x21+x48 <=1 
C630: x21+x49 <=1 
C631: x21+x51 <=1 
C632: x21+x52-y21_52 <=1 
C633: x21+x53-y21_53 <=1 
C634: x21+x55-y21_55 <=1 
C635: x21+x57-y21_57 <=1 
C636: x21+x59-y21_59 <=1 
C637: x22+x23-y22_23 <=1 
C638: x22+x24 <=1 
C639: x22+x30 <=1 
C640: x22+x32-y22_32 <=1 
C641: x22+x33 <=1 
C642: x22+x34 <=1 
C643: x22+x35 <=1 
C644: x22+x36 <=1 
C645: x22+x37-y22_37 <=1 
C646: x22+x38-y22_38 <=1 
C647: x22+x39 <=1 
C648: x22+x40 <=1 
C649: x22+x41 <=1 
C650: x22+x43 <=1 
C651: x22+x44-y22_44 <=1 
C652: x22+x47-y22_47 <=1 
C653: x22+x48-y22_48 <=1 
C654: x22+x49-y22_49 <=1 
C655: x22+x50 <=1 
C656: x22+x52-y22_52 <=1 
C657: x22+x53 <=1 
C658: x22+x57-y22_57 <=1 
C659: x22+x59-y22_59 <=1 
C660: x23+x24-y23_24 <=1 
C661: x23+x27-y23_27 <=1 
C662: x23+x28-y23_28 <=1 
C663: x23+x29 <=1 
C664: x23+x30 <=1 
C665: x23+x32-y23_32 <=1 
C666: x23+x33 <=1 
C667: x23+x36-y23_36 <=1 
C668: x23+x37 <=1 
C669: x23+x38-y23_38 <=1 
C670: x23+x39-y23_39 <=1 
C671: x23+x40 <=1 
C672: x23+x41-y23_41 <=1 
C673: x23+x44 <=1 
C674: x23+x45-y23_45 <=1 
C675: x23+x46 <=1 
C676: x23+x47 <=1 
C677: x23+x49 <=1 
C678: x23+x52-y23_52 <=1 
C679: x23+x53 <=1 
C680: x23+x55-y23_55 <=1 
C681: x23+x58-y23_58 <=1 
C682: x24+x26 <=1 
C683: x24+x27-y24_27 <=1 
C684: x24+x28 <=1 
C685: x24+x29-y24_29 <=1 
C686: x24+x30 <=1 
C687: x24+x32 <=1 
C688: x24+x34-y24_34 <=1 
C689: x24+x35 <=1 
C690: x24+x36-y24_36 <=1 
C691: x24+x37 <=1 
C692: x24+x38-y24_38 <=1 
C693: x24+x39 <=1 
C694: x24+x40 <=1 
C695: x24+x41 <=1 
C696: x24+x42-y24_42 <=1 
C697: x24+x43-y24_43 <=1 
C698: x24+x44 <=1 
C699: x24+x45 <=1 
C700: x24+x48-y24_48 <=1 
C701: x24+x49-y24_49 <=1 
C702: x24+x50-y24_50 <=1 
C703: x24+x51-y24_51 <=1 
C704: x24+x52 <=1 
C705: x24+x53 <=1 
C706: x24+x55-y24_55 <=1 
C707: x24+x57 <=1 
C708: x24+x59 <=1 
C709: x25+x28 <=1 
C710: x25+x29-y25_29 <=1 
C711: x25+x32 <=1 
C712: x25+x33 <=1 
C713: x25+x34-y25_34 <=1 
C714: x25+x35-y25_35 <=1 
C715: x25+x36 <=1 
C716: x25+x37 <=1 
C717: x25+x40 <=1 
C718: x25+x43-y25_43 <=1 
C719: x25+x44-y25_44 <=1 
C720: x25+x46 <=1 
C721: x25+x47-y25_47 <=1 
C722: x25+x48-y25_48 <=1 
C723: x25+x51-y25_51 <=1 
C724: x25+x53 <=1 
C725: x25+x54 <=1 
C726: x25+x55 <=1 
C727: x26+x28 <=1 
C728: x26+x29-y26_29 <=1 
C729: x26+x31-y26_31 <=1 
C730: x26+x33 <=1 
C731: x26+x35-y26_35 <=1 
C732: x26+x36 <=1 
C733: x26+x37 <=1 
C734: x26+x41-y26_41 <=1 
C735: x26+x43-y26_43 <=1 
C736: x26+x44-y26_44 <=1 
C737: x26+x46 <=1 
C738: x26+x47 <=1 
C739: x26+x48-y26_48 <=1 
C740: x26+x54 <=1 
C741: x26+x55-y26_55 <=1 
C742: x26+x56 <=1 
C743: x26+x57 <=1 
C744: x26+x59-y26_59 <=1 
C745: x27+x28-y27_28 <=1 
C746: x27+x32-y27_32 <=1 
C747: x27+x33-y27_33 <=1 
C748: x27+x35-y27_35 <=1 
C749: x27+x36 <=1 
C750: x27+x38 <=1 
C751: x27+x40-y27_40 <=1 
C752: x27+x42-y27_42 <=1 
C753: x27+x44-y27_44 <=1 
C754: x27+x45-y27_45 <=1 
C755: x27+x46-y27_46 <=1 
C756: x27+x47 <=1 
C757: x27+x50-y27_50 <=1 
C758: x27+x53-y27_53 <=1 
C759: x27+x56 <=1 
C760: x27+x57-y27_57 <=1 
C761: x27+x58-y27_58 <=1 
C762: x27+x59-y27_59 <=1 
C763: x28+x29 <=1 
C764: x28+x30 <=1 
C765: x28+x32-y28_32 <=1 
C766: x28+x33-y28_33 <=1 
C767: x28+x36 <=1 
C768: x28+x39 <=1 
C769: x28+x41 <=1 
C770: x28+x42-y28_42 <=1 
C771: x28+x43 <=1 
C772: x28+x44 <=1 
C773: x28+x45 <=1 
C774: x28+x46-y28_46 <=1 
C775: x28+x48 <=1 
C776: x28+x50 <=1 
C777: x28+x53-y28_53 <=1 
C778: x28+x55 <=1 
C779: x28+x56-y28_56 <=1 
C780: x28+x57-y28_57 <=1 
C781: x28+x58-y28_58 <=1 
C782: x28+x59 <=1 
C783: x29+x31 <=1 
C784: x29+x33 <=1 
C785: x29+x34 <=1 
C786: x29+x35-y29_35 <=1 
C787: x29+x36-y29_36 <=1 
C788: x29+x37 <=1 
C789: x29+x38 <=1 
C790: x29+x39-y29_39 <=1 
C791: x29+x40-y29_40 <=1 
C792: x29+x41-y29_41 <=1 
C793: x29+x42-y29_42 <=1 
C794: x29+x44-y29_44 <=1 
C795: x29+x45 <=1 
C796: x29+x46 <=1 
C797: x29+x48 <=1 
C798: x29+x49 <=1 
C799: x29+x50 <=1 
C800: x29+x51-y29_51 <=1 
C801: x29+x52-y29_52 <=1 
C802: x29+x54 <=1 
C803: x29+x56-y29_56 <=1 
C804: x29+x58 <=1 
C805: x30+x31 <=1 
C806: x30+x32-y30_32 <=1 
C807: x30+x35 <=1 
C808: x30+x37 <=1 
C809: x30+x39-y30_39 <=1 
C810: x30+x40 <=1 
C811: x30+x42 <=1 
C812: x30+x43 <=1 
C813: x30+x45 <=1 
C814: x30+x47-y30_47 <=1 
C815: x30+x49-y30_49 <=1 
C816: x30+x51 <=1 
C817: x30+x54-y30_54 <=1 
C818: x30+x56-y30_56 <=1 
C819: x30+x57 <=1 
C820: x31+x32-y31_32 <=1 
C821: x31+x33 <=1 
C822: x31+x34 <=1 
C823: x31+x37-y31_37 <=1 
C824: x31+x38-y31_38 <=1 
C825: x31+x40 <=1 
C826: x31+x42-y31_42 <=1 
C827: x31+x43 <=1 
C828: x31+x44-y31_44 <=1 
C829: x31+x45-y31_45 <=1 
C830: x31+x46 <=1 
C831: x31+x47 <=1 
C832: x31+x50-y31_50 <=1 
C833: x31+x51 <=1 
C834: x31+x52-y31_52 <=1 
C835: x31+x53-y31_53 <=1 
C836: x31+x55-y31_55 <=1 
C837: x31+x59 <=1 
C838: x32+x35 <=1 
C839: x32+x36 <=1 
C840: x32+x37 <=1 
C841: x32+x38-y32_38 <=1 
C842: x32+x39 <=1 
C843: x32+x40-y32_40 <=1 
C844: x32+x41-y32_41 <=1 
C845: x32+x43-y32_43 <=1 
C846: x32+x44 <=1 
C847: x32+x45 <=1 
C848: x32+x46 <=1 
C849: x32+x47-y32_47 <=1 
C850: x32+x48-y32_48 <=1 
C851: x32+x50-y32_50 <=1 
C852: x32+x52-y32_52 <=1 
C853: x32+x56 <=1 
C854: x32+x57 <=1 
C855: x32+x58 <=1 
C856: x32+x59 <=1 
C857: x33+x36 <=1 
C858: x33+x37 <=1 
C859: x33+x38 <=1 
C860: x33+x39 <=1 
C861: x33+x40-y33_40 <=1 
C862: x33+x42 <=1 
C863: x33+x43-y33_43 <=1 
C864: x33+x45-y33_45 <=1 
C865: x33+x46 <=1 
C866: x33+x47-y33_47 <=1 
C867: x33+x48-y33_48 <=1 
C868: x33+x54 <=1 
C869: x33+x55-y33_55 <=1 
C870: x33+x57-y33_57 <=1 
C871: x33+x59-y33_59 <=1 
C872: x34+x37-y34_37 <=1 
C873: x34+x38 <=1 
C874: x34+x40-y34_40 <=1 
C875: x34+x42-y34_42 <=1 
C876: x34+x43 <=1 
C877: x34+x45 <=1 
C878: x34+x46-y34_46 <=1 
C879: x34+x49-y34_49 <=1 
C880: x34+x50 <=1 
C881: x34+x51-y34_51 <=1 
C882: x34+x54-y34_54 <=1 
C883: x34+x55-y34_55 <=1 
C884: x34+x57-y34_57 <=1 
C885: x34+x59 <=1 
C886: x35+x37 <=1 
C887: x35+x38-y35_38 <=1 
C888: x35+x39-y35_39 <=1 
C889: x35+x40 <=1 
C890: x35+x41 <=1 
C891: x35+x42-y35_42 <=1 
C892: x35+x43-y35_43 <=1 
C893: x35+x45-y35_45 <=1 
C894: x35+x46 <=1 
C895: x35+x47 <=1 
C896: x35+x49-y35_49 <=1 
C897: x35+x51 <=1 
C898: x35+x52 <=1 
C899: x35+x53 <=1 
C900: x35+x54 <=1 
C901: x35+x55-y35_55 <=1 
C902: x35+x57 <=1 
C903: x35+x58 <=1 
C904: x35+x59-y35_59 <=1 
C905: x36+x37 <=1 
C906: x36+x38-y36_38 <=1 
C907: x36+x42-y36_42 <=1 
C908: x36+x43-y36_43 <=1 
C909: x36+x44 <=1 
C910: x36+x45 <=1 
C911: x36+x47-y36_47 <=1 
C912: x36+x48-y36_48 <=1 
C913: x36+x50-y36_50 <=1 
C914: x36+x51 <=1 
C915: x36+x52 <=1 
C916: x36+x53 <=1 
C917: x36+x58 <=1 
C918: x36+x59 <=1 
C919: x37+x40-y37_40 <=1 
C920: x37+x42 <=1 
C921: x37+x43-y37_43 <=1 
C922: x37+x44-y37_44 <=1 
C923: x37+x47 <=1 
C924: x37+x50 <=1 
C925: x37+x51-y37_51 <=1 
C926: x37+x55-y37_55 <=1 
C927: x37+x58-y37_58 <=1 
C928: x37+x59 <=1 
C929: x38+x39-y38_39 <=1 
C930: x38+x40-y38_40 <=1 
C931: x38+x41 <=1 
C932: x38+x42-y38_42 <=1 
C933: x38+x43-y38_43 <=1 
C934: x38+x44 <=1 
C935: x38+x45-y38_45 <=1 
C936: x38+x46-y38_46 <=1 
C937: x38+x48 <=1 
C938: x38+x49-y38_49 <=1 
C939: x38+x50-y38_50 <=1 
C940: x38+x51 <=1 
C941: x38+x52-y38_52 <=1 
C942: x38+x53 <=1 
C943: x38+x54-y38_54 <=1 
C944: x38+x57 <=1 
C945: x38+x59-y38_59 <=1 
C946: x39+x40 <=1 
C947: x39+x41-y39_41 <=1 
C948: x39+x43 <=1 
C949: x39+x44 <=1 
C950: x39+x46 <=1 
C951: x39+x48-y39_48 <=1 
C952: x39+x49-y39_49 <=1 
C953: x39+x50 <=1 
C954: x39+x51 <=1 
C955: x39+x54 <=1 
C956: x39+x56-y39_56 <=1 
C957: x40+x42-y40_42 <=1 
C958: x40+x43-y40_43 <=1 
C959: x40+x45 <=1 
C960: x40+x46-y40_46 <=1 
C961: x40+x49 <=1 
C962: x40+x50-y40_50 <=1 
C963: x40+x52 <=1 
C964: x40+x53 <=1 
C965: x40+x56-y40_56 <=1 
C966: x40+x57 <=1 
C967: x40+x58 <=1 
C968: x40+x59-y40_59 <=1 
C969: x41+x44-y41_44 <=1 
C970: x41+x45 <=1 
C971: x41+x47 <=1 
C972: x41+x49 <=1 
C973: x41+x50-y41_50 <=1 
C974: x41+x51 <=1 
C975: x41+x53-y41_53 <=1 
C976: x41+x55-y41_55 <=1 
C977: x41+x56-y41_56 <=1 
C978: x42+x43 <=1 
C979: x42+x44-y42_44 <=1 
C980: x42+x48-y42_48 <=1 
C981: x42+x49-y42_49 <=1 
C982: x42+x50-y42_50 <=1 
C983: x42+x51-y42_51 <=1 
C984: x42+x52 <=1 
C985: x42+x53-y42_53 <=1 
C986: x42+x54-y42_54 <=1 
C987: x42+x55-y42_55 <=1 
C988: x42+x56-y42_56 <=1 
C989: x42+x59-y42_59 <=1 
C990: x43+x46-y43_46 <=1 
C991: x43+x49-y43_49 <=1 
C992: x43+x51 <=1 
C993: x43+x53-y43_53 <=1 
C994: x43+x54 <=1 
C995: x43+x55-y43_55 <=1 
C996: x43+x57-y43_57 <=1 
C997: x43+x59-y43_59 <=1 
C998: x44+x45-y44_45 <=1 
C999: x44+x46 <=1 
C1000: x44+x47-y44_47 <=1 
C1001: x44+x50-y44_50 <=1 
C1002: x44+x51-y44_51 <=1 
C1003: x44+x53-y44_53 <=1 
C1004: x44+x54-y44_54 <=1 
C1005: x44+x55 <=1 
C1006: x44+x57 <=1 
C1007: x44+x58 <=1 
C1008: x44+x59-y44_59 <=1 
C1009: x45+x46-y45_46 <=1 
C1010: x45+x48 <=1 
C1011: x45+x50-y45_50 <=1 
C1012: x45+x52-y45_52 <=1 
C1013: x45+x53 <=1 
C1014: x45+x54-y45_54 <=1 
C1015: x45+x56 <=1 
C1016: x45+x57 <=1 
C1017: x46+x47 <=1 
C1018: x46+x48 <=1 
C1019: x46+x49-y46_49 <=1 
C1020: x46+x50 <=1 
C1021: x46+x51 <=1 
C1022: x46+x52 <=1 
C1023: x46+x59 <=1 
C1024: x47+x48 <=1 
C1025: x47+x50 <=1 
C1026: x47+x52-y47_52 <=1 
C1027: x47+x53 <=1 
C1028: x47+x54-y47_54 <=1 
C1029: x47+x55-y47_55 <=1 
C1030: x47+x58-y47_58 <=1 
C1031: x47+x59 <=1 
C1032: x48+x49 <=1 
C1033: x48+x50 <=1 
C1034: x48+x52-y48_52 <=1 
C1035: x48+x55-y48_55 <=1 
C1036: x48+x58-y48_58 <=1 
C1037: x48+x59 <=1 
C1038: x49+x50 <=1 
C1039: x49+x51-y49_51 <=1 
C1040: x49+x54-y49_54 <=1 
C1041: x49+x56 <=1 
C1042: x49+x58-y49_58 <=1 
C1043: x49+x59-y49_59 <=1 
C1044: x50+x51-y50_51 <=1 
C1045: x50+x55 <=1 
C1046: x50+x56 <=1 
C1047: x50+x58 <=1 
C1048: x50+x59 <=1 
C1049: x51+x52-y51_52 <=1 
C1050: x51+x53 <=1 
C1051: x51+x54-y51_54 <=1 
C1052: x51+x57 <=1 
C1053: x51+x59 <=1 
C1054: x52+x54 <=1 
C1055: x52+x55-y52_55 <=1 
C1056: x52+x58-y52_58 <=1 
C1057: x53+x54 <=1 
C1058: x53+x55-y53_55 <=1 
C1059: x53+x56-y53_56 <=1 
C1060: x53+x57-y53_57 <=1 
C1061: x54+x56 <=1 
C1062: x54+x57-y54_57 <=1 
C1063: x54+x58 <=1 
C1064: x55+x57-y55_57 <=1 
C1065: x56+x57 <=1 
C1066: x56+x58 <=1 
C1067: x56+x59-y56_59 <=1 
C1068: x57+x58-y57_58 <=1 
C1069: x57+x59 <=1 
C1070: x58+x59 <=1 

binary
x0
x1
x2
x3
x4
x5
x6
x7
x8
x9
x10
x11
x12
x13
x14
x15
x16
x17
x18
x19
x20
x21
x22
x23
x24
x25
x26
x27
x28
x29
x30
x31
x32
x33
x34
x35
x36
x37
x38
x39
x40
x41
x42
x43
x44
x45
x46
x47
x48
x49
x50
x51
x52
x53
x54
x55
x56
x57
x58
x59
