problem_generation/data/GISP/train/er_n=60_m=1070_p=0.60_SET2_setparam=100.00_alpha=0.50_231.sol
objective value:                                 1273
x8                                                  1 	(obj:100)
x20                                                 1 	(obj:100)
x26                                                 1 	(obj:100)
x27                                                 1 	(obj:100)
x30                                                 1 	(obj:100)
x34                                                 1 	(obj:100)
x39                                                 1 	(obj:100)
x41                                                 1 	(obj:100)
x48                                                 1 	(obj:100)
x52                                                 1 	(obj:100)
x53                                                 1 	(obj:100)
x55                                                 1 	(obj:100)
x58                                                 1 	(obj:100)
y48_58                                              1 	(obj:-1)
y39_48                                              1 	(obj:-1)
y20_39                                              1 	(obj:-1)
y20_34                                              1 	(obj:-1)
y26_48                                              1 	(obj:-1)
y27_58                                              1 	(obj:-1)
y39_41                                              1 	(obj:-1)
y27_53                                              1 	(obj:-1)
y41_55                                              1 	(obj:-1)
y52_55                                              1 	(obj:-1)
y8_26                                               1 	(obj:-1)
y8_30                                               1 	(obj:-1)
y48_52                                              1 	(obj:-1)
y52_58                                              1 	(obj:-1)
y8_53                                               1 	(obj:-1)
y20_27                                              1 	(obj:-1)
y8_39                                               1 	(obj:-1)
y30_39                                              1 	(obj:-1)
y53_55                                              1 	(obj:-1)
y26_55                                              1 	(obj:-1)
y20_26                                              1 	(obj:-1)
y34_55                                              1 	(obj:-1)
y26_41                                              1 	(obj:-1)
y8_20                                               1 	(obj:-1)
y41_53                                              1 	(obj:-1)
y20_30                                              1 	(obj:-1)
y48_55                                              1 	(obj:-1)
